[2026-03-23T16:35:15.405Z] Pipeline "set_ds_1_ds_1_s008_g004" → 2026_03_23_16_35_15_set_ds_1_ds_1_s008_g004_max.sol
Set parameter WLSAccessID
Set parameter WLSSecret
Set parameter LicenseID to value 2792458
Set parameter LogFile to value "gurobi.log"
Using license file /root/gurobi.lic
Academic license 2792458 - for non-commercial use only - registered to an___@studenti.unipg.it

Gurobi Optimizer version 13.0.1 build v13.0.1rc0 (linux64 - "Ubuntu 24.04.4 LTS")
Copyright (c) 2026, Gurobi Optimization, LLC

Warning: Duplicate section found (read 'binary') - Is a variable name equal to an LP file format keyword?
Warning: Duplicate section found (read 'binary') - Is a variable name equal to an LP file format keyword?
Warning: Duplicate section found (read 'binary') - Is a variable name equal to an LP file format keyword?
Warning: Duplicate section found (read 'binary') - Is a variable name equal to an LP file format keyword?
Warning: Duplicate section found (read 'binary') - Is a variable name equal to an LP file format keyword?
Warning: Duplicate section found (read 'binary') - Is a variable name equal to an LP file format keyword?
Warning: Duplicate section found (read 'binary') - Is a variable name equal to an LP file format keyword?
Warning: Duplicate section found (read 'binary') - Is a variable name equal to an LP file format keyword?
Warning: Duplicate section found (read 'binary') - Is a variable name equal to an LP file format keyword?
Warning: Duplicate section found (read 'binary') - Is a variable name equal to an LP file format keyword?
Warning: Further warnings of this type will be omitted.
Read LP format model from file /root/bgw/data/uploads/2026_03_23_16_35_15_set_ds_1_ds_1_s008_g004_max.lp
Reading time = 0.00 seconds
: 1914 rows, 229 columns, 5802 nonzeros

Using Gurobi shared library /opt/gurobi1301/linux64/lib/libgurobi.so.13.0.1

CPU model: AMD EPYC-Genoa Processor, instruction set [SSE2|AVX|AVX2|AVX512]
Thread count: 16 physical cores, 16 logical processors, using up to 16 threads

Academic license 2792458 - for non-commercial use only - registered to an___@studenti.unipg.it
Optimize a model with 1914 rows, 229 columns and 5802 nonzeros (Max)
Model fingerprint: 0x8f8db92d
Model has 16 linear objective coefficients
Variable types: 34 continuous, 195 integer (195 binary)
Coefficient statistics:
  Matrix range     [1e+00, 2e+01]
  Objective range  [1e+00, 1e+00]
  Bounds range     [1e+00, 1e+00]
  RHS range        [1e+00, 2e+01]

Found heuristic solution: objective 16.0000000
Presolve removed 257 rows and 61 columns
Presolve time: 0.01s
Presolved: 1657 rows, 168 columns, 5046 nonzeros
Variable types: 0 continuous, 168 integer (163 binary)
Found heuristic solution: objective 23.0000000

Root relaxation: objective 8.600000e+01, 100 iterations, 0.01 seconds (0.00 work units)

    Nodes    |    Current Node    |     Objective Bounds      |     Work
 Expl Unexpl |  Obj  Depth IntInf | Incumbent    BestBd   Gap | It/Node Time

     0     0   86.00000    0   16   23.00000   86.00000   274%     -    0s
H    0     0                      37.0000000   86.00000   132%     -    0s
H    0     0                      44.0000000   86.00000  95.5%     -    0s
     0     0   86.00000    0   14   44.00000   86.00000  95.5%     -    0s
     0     0   86.00000    0   16   44.00000   86.00000  95.5%     -    0s
     0     0   86.00000    0   14   44.00000   86.00000  95.5%     -    0s
     0     0   79.00000    0   14   44.00000   79.00000  79.5%     -    0s
     0     0   79.00000    0   14   44.00000   79.00000  79.5%     -    0s
     0     0   79.00000    0   14   44.00000   79.00000  79.5%     -    0s
     0     0   79.00000    0   14   44.00000   79.00000  79.5%     -    0s
     0     0   79.00000    0   12   44.00000   79.00000  79.5%     -    0s
     0     0   79.00000    0   12   44.00000   79.00000  79.5%     -    0s
     0     0   78.12500    0   20   44.00000   78.12500  77.6%     -    0s
     0     0   78.12500    0   13   44.00000   78.12500  77.6%     -    0s
     0     0   71.56250    0   15   44.00000   71.56250  62.6%     -    0s
     0     0   71.41667    0   14   44.00000   71.41667  62.3%     -    0s
     0     0   71.41667    0   14   44.00000   71.41667  62.3%     -    0s
     0     0   71.12500    0   14   44.00000   71.12500  61.6%     -    0s
     0     0   71.12500    0   13   44.00000   71.12500  61.6%     -    0s
     0     2   71.12500    0   13   44.00000   71.12500  61.6%     -    0s

Cutting planes:
  Gomory: 2
  Cover: 1
  MIR: 7
  Inf proof: 3
  Mod-K: 1

Explored 585 nodes (14051 simplex iterations) in 0.41 seconds (0.26 work units)
Thread count was 16 (of 16 available processors)

Solution count 4: 44 37 23 16 

Optimal solution found (tolerance 1.00e-04)
Best objective 4.400000000000e+01, best bound 4.400000000000e+01, gap 0.0000%

Wrote result file '/root/bgw/data/results/2026_03_23_16_35_15_set_ds_1_ds_1_s008_g004_max.sol'

